p cnf 179 546
c ind 1 2 3 4 5 6 7 8 9 10 0
c ind 11 12 13 14 15 16 17 18 19 20 0
c ind 21 22 0
97 0
96 -97 0
92 -97 0
88 -97 0
-88 -92 -96 97 0
-22 95 -96 0
22 -95 -96 0
-22 -95 96 0
22 95 96 0
-94 95 0
-93 95 0
93 94 -95 0
15 -94 0
12 -94 0
-12 -15 94 0
16 -93 0
11 -93 0
-11 -16 93 0
-20 91 -92 0
20 -91 -92 0
-20 -91 92 0
20 91 92 0
-90 91 0
-89 91 0
89 90 -91 0
11 -90 0
8 -90 0
-8 -11 90 0
12 -89 0
7 -89 0
-7 -12 89 0
-18 87 -88 0
18 -87 -88 0
-18 -87 88 0
18 87 88 0
-86 87 0
-85 87 0
85 86 -87 0
7 -86 0
4 -86 0
-4 -7 86 0
8 -85 0
3 -85 0
-3 -8 85 0
84 0
83 -84 0
79 -84 0
75 -84 0
-75 -79 -83 84 0
-21 82 -83 0
21 -82 -83 0
-21 -82 83 0
21 82 83 0
-81 82 0
-80 82 0
80 81 -82 0
16 -81 0
12 -81 0
-12 -16 81 0
15 -80 0
11 -80 0
-11 -15 80 0
-19 78 -79 0
19 -78 -79 0
-19 -78 79 0
19 78 79 0
-77 78 0
-76 78 0
76 77 -78 0
12 -77 0
8 -77 0
-8 -12 77 0
11 -76 0
7 -76 0
-7 -11 76 0
-17 74 -75 0
17 -74 -75 0
-17 -74 75 0
17 74 75 0
-73 74 0
-72 74 0
72 73 -74 0
8 -73 0
4 -73 0
-4 -8 73 0
7 -72 0
3 -72 0
-3 -7 72 0
71 0
70 -71 0
68 -71 0
66 -71 0
64 -71 0
62 -71 0
60 -71 0
58 -71 0
56 -71 0
54 -71 0
52 -71 0
50 -71 0
48 -71 0
46 -71 0
44 -71 0
42 -71 0
40 -71 0
-40 -42 -44 -46 -48 -50 -52 -54 -56 -58 -60 -62 -64 -66 -68 -70 71 0
-38 69 -70 0
38 -69 -70 0
-38 -69 70 0
38 69 70 0
14 -69 0
16 -69 0
-16 -14 69 0
-37 67 -68 0
37 -67 -68 0
-37 -67 68 0
37 67 68 0
13 -67 0
16 -67 0
-16 -13 67 0
-36 65 -66 0
36 -65 -66 0
-36 -65 66 0
36 65 66 0
14 -65 0
15 -65 0
-15 -14 65 0
-35 63 -64 0
35 -63 -64 0
-35 -63 64 0
35 63 64 0
13 -63 0
15 -63 0
-15 -13 63 0
-34 61 -62 0
34 -61 -62 0
-34 -61 62 0
34 61 62 0
10 -61 0
12 -61 0
-12 -10 61 0
-33 59 -60 0
33 -59 -60 0
-33 -59 60 0
33 59 60 0
9 -59 0
12 -59 0
-12 -9 59 0
-32 57 -58 0
32 -57 -58 0
-32 -57 58 0
32 57 58 0
10 -57 0
11 -57 0
-11 -10 57 0
-31 55 -56 0
31 -55 -56 0
-31 -55 56 0
31 55 56 0
9 -55 0
11 -55 0
-11 -9 55 0
-30 53 -54 0
30 -53 -54 0
-30 -53 54 0
30 53 54 0
6 -53 0
8 -53 0
-8 -6 53 0
-29 51 -52 0
29 -51 -52 0
-29 -51 52 0
29 51 52 0
5 -51 0
8 -51 0
-8 -5 51 0
-28 49 -50 0
28 -49 -50 0
-28 -49 50 0
28 49 50 0
6 -49 0
7 -49 0
-7 -6 49 0
-27 47 -48 0
27 -47 -48 0
-27 -47 48 0
27 47 48 0
5 -47 0
7 -47 0
-7 -5 47 0
-26 45 -46 0
26 -45 -46 0
-26 -45 46 0
26 45 46 0
2 -45 0
4 -45 0
-4 -2 45 0
-25 43 -44 0
25 -43 -44 0
-25 -43 44 0
25 43 44 0
1 -43 0
4 -43 0
-4 -1 43 0
-24 41 -42 0
24 -41 -42 0
-24 -41 42 0
24 41 42 0
2 -41 0
3 -41 0
-3 -2 41 0
-23 39 -40 0
23 -39 -40 0
-23 -39 40 0
23 39 40 0
1 -39 0
3 -39 0
-3 -1 39 0
179 0
179 164 175 -176 0
179 164 -175 176 0
179 -164 175 176 0
179 -164 -175 -176 0
-179 164 175 176 0
-179 164 -175 -176 0
-179 -164 175 -176 0
-179 -164 -175 176 0
178 -175 -176 0
178 -164 -176 0
178 -164 -175 0
-178 175 176 0
-178 164 176 0
-178 164 175 0
177 -165 173 0
177 165 -173 0
-177 -165 -173 0
-177 165 173 0
176 -165 -173 0
-176 173 0
-176 165 0
175 168 170 -172 0
175 168 -170 172 0
175 -168 170 172 0
175 -168 -170 -172 0
-175 168 170 172 0
-175 168 -170 -172 0
-175 -168 170 -172 0
-175 -168 -170 172 0
174 -170 -172 0
174 -168 -172 0
174 -168 -170 0
-174 170 172 0
-174 168 172 0
-174 168 170 0
173 -169 171 0
173 169 -171 0
-173 -169 -171 0
-173 169 171 0
172 -169 -171 0
-172 171 0
-172 169 0
171 0
-170 0
-169 -167 0
169 167 0
-168 -166 0
168 166 0
-167 0
166 0
165 -19 21 0
165 19 -21 0
-165 -19 -21 0
-165 19 21 0
164 -19 -21 0
-164 21 0
-164 19 0
163 0
163 148 159 -160 0
163 148 -159 160 0
163 -148 159 160 0
163 -148 -159 -160 0
-163 148 159 160 0
-163 148 -159 -160 0
-163 -148 159 -160 0
-163 -148 -159 160 0
162 -159 -160 0
162 -148 -160 0
162 -148 -159 0
-162 159 160 0
-162 148 160 0
-162 148 159 0
161 -149 157 0
161 149 -157 0
-161 -149 -157 0
-161 149 157 0
160 -149 -157 0
-160 157 0
-160 149 0
159 152 154 -156 0
159 152 -154 156 0
159 -152 154 156 0
159 -152 -154 -156 0
-159 152 154 156 0
-159 152 -154 -156 0
-159 -152 154 -156 0
-159 -152 -154 156 0
158 -154 -156 0
158 -152 -156 0
158 -152 -154 0
-158 154 156 0
-158 152 156 0
-158 152 154 0
157 -153 155 0
157 153 -155 0
-157 -153 -155 0
-157 153 155 0
156 -153 -155 0
-156 155 0
-156 153 0
155 0
-154 0
-153 -151 0
153 151 0
-152 -150 0
152 150 0
-151 0
150 0
149 -17 19 0
149 17 -19 0
-149 -17 -19 0
-149 17 19 0
148 -17 -19 0
-148 19 0
-148 17 0
147 0
-146 0
147 -21 22 0
147 21 -22 0
-147 -21 -22 0
-147 21 22 0
146 -21 -22 0
-146 22 0
-146 21 0
145 0
-144 0
145 -19 20 0
145 19 -20 0
-145 -19 -20 0
-145 19 20 0
144 -19 -20 0
-144 20 0
-144 19 0
143 0
-142 0
143 -17 18 0
143 17 -18 0
-143 -17 -18 0
-143 17 18 0
142 -17 -18 0
-142 18 0
-142 17 0
141 0
-140 0
141 -15 16 0
141 15 -16 0
-141 -15 -16 0
-141 15 16 0
140 -15 -16 0
-140 16 0
-140 15 0
139 0
-138 0
139 -13 14 0
139 13 -14 0
-139 -13 -14 0
-139 13 14 0
138 -13 -14 0
-138 14 0
-138 13 0
137 0
-136 0
137 -11 12 0
137 11 -12 0
-137 -11 -12 0
-137 11 12 0
136 -11 -12 0
-136 12 0
-136 11 0
135 0
-134 0
135 -9 10 0
135 9 -10 0
-135 -9 -10 0
-135 9 10 0
134 -9 -10 0
-134 10 0
-134 9 0
133 0
-132 0
133 -7 8 0
133 7 -8 0
-133 -7 -8 0
-133 7 8 0
132 -7 -8 0
-132 8 0
-132 7 0
131 0
-130 0
131 -5 6 0
131 5 -6 0
-131 -5 -6 0
-131 5 6 0
130 -5 -6 0
-130 6 0
-130 5 0
129 0
-128 0
129 -3 4 0
129 3 -4 0
-129 -3 -4 0
-129 3 4 0
128 -3 -4 0
-128 4 0
-128 3 0
127 0
-126 0
127 -1 2 0
127 1 -2 0
-127 -1 -2 0
-127 1 2 0
126 -1 -2 0
-126 2 0
-126 1 0
124 0
-125 0
125 -123 0
125 -119 0
125 -121 0
-125 121 119 123 0
124 -122 120 0
124 122 -120 0
-124 -122 -120 0
-124 122 120 0
123 -122 -120 0
-123 120 0
-123 122 0
122 -30 38 0
122 30 -38 0
-122 -30 -38 0
-122 30 38 0
121 -30 -38 0
-121 38 0
-121 30 0
120 -26 34 0
120 26 -34 0
-120 -26 -34 0
-120 26 34 0
119 -26 -34 0
-119 34 0
-119 26 0
117 0
-118 0
118 -116 0
118 -112 0
118 -114 0
-118 114 112 116 0
117 -115 113 0
117 115 -113 0
-117 -115 -113 0
-117 115 113 0
116 -115 -113 0
-116 113 0
-116 115 0
115 -29 37 0
115 29 -37 0
-115 -29 -37 0
-115 29 37 0
114 -29 -37 0
-114 37 0
-114 29 0
113 -25 33 0
113 25 -33 0
-113 -25 -33 0
-113 25 33 0
112 -25 -33 0
-112 33 0
-112 25 0
110 0
-111 0
111 -109 0
111 -105 0
111 -107 0
-111 107 105 109 0
110 -108 106 0
110 108 -106 0
-110 -108 -106 0
-110 108 106 0
109 -108 -106 0
-109 106 0
-109 108 0
108 -28 36 0
108 28 -36 0
-108 -28 -36 0
-108 28 36 0
107 -28 -36 0
-107 36 0
-107 28 0
106 -24 32 0
106 24 -32 0
-106 -24 -32 0
-106 24 32 0
105 -24 -32 0
-105 32 0
-105 24 0
103 0
-104 0
104 -102 0
104 -98 0
104 -100 0
-104 100 98 102 0
103 -101 99 0
103 101 -99 0
-103 -101 -99 0
-103 101 99 0
102 -101 -99 0
-102 99 0
-102 101 0
101 -27 35 0
101 27 -35 0
-101 -27 -35 0
-101 27 35 0
100 -27 -35 0
-100 35 0
-100 27 0
99 -23 31 0
99 23 -31 0
-99 -23 -31 0
-99 23 31 0
98 -23 -31 0
-98 31 0
-98 23 0
1 -2 3 -4 5 -6 -7 8 -9 10 11 -12 -13 14 -15 16 17 -18 19 -20 21 -22 0
1 -2 3 -4 -5 6 -7 8 -9 10 11 -12 13 -14 -15 16 17 -18 19 -20 21 -22 0
1 -2 -3 4 -5 6 7 -8 -9 10 -11 12 13 -14 15 -16 17 -18 19 -20 21 -22 0
1 -2 -3 4 5 -6 7 -8 -9 10 -11 12 -13 14 15 -16 17 -18 19 -20 21 -22 0
1 -2 3 -4 5 -6 -7 8 -9 10 -11 12 -13 14 15 -16 17 -18 -19 20 21 -22 0